NAME : cluster_netgen
COMMENT : cl=4
TYPE : TSP
DIMENSION : 50
EDGE_WEIGHT_TYPE : EUC_2D
NODE_COORD_SECTION
1 373052 59033
2 348101 65789
3 275780 108741
4 366822 79564
5 426941 174214
6 411448 56052
7 333358 92051
8 443877 158520
9 443374 158709
10 427278 131913
11 370344 73087
12 352462 94584
13 396933 156163
14 428475 148206
15 980654 910690
16 924284 975361
17 892762 859005
18 922716 841103
19 985191 777053
20 936389 867297
21 951761 909282
22 836239 836429
23 990728 843803
24 982777 944717
25 891123 898112
26 939831 823152
27 1496 681701
28 16295 647421
29 94726 746994
30 53195 676456
31 18485 646026
32 5345 749339
33 17407 707909
34 45281 610813
35 39255 644590
36 66706 737049
37 117494 661817
38 29182 685732
39 708496 227286
40 738938 413136
41 635878 293086
42 742944 294769
43 789086 301587
44 681120 315668
45 589916 238140
46 749878 181653
47 756425 232769
48 724978 316540
49 825537 224698
50 749697 254200

EOF
